Monoclinic Ethane                       
   1.00000000000000     
     4.2259989999999998    0.0000000000000000    0.0000000000000000
     0.0000000000000000    5.6230000000000002    0.0000000000000000
    -0.0418250000000000    0.0000000000000000    5.8448500000000001
   C    H 
     4    12
Direct
  0.9605814279550138  0.0952319854917685  0.9109966767795487
  0.0394183337212505  0.9047680145082316  0.0890031521296617
  0.5394183337212504  0.5952318076507518  0.5890031521296618
  0.4605814279550136  0.4047678366672219  0.4109966767795488
  0.0619734615993738  0.0511575795105337  0.7428036358039412
  0.9380263000768906  0.9488424204894663  0.2571961931052694
  0.4380260634464488  0.5511575795105337  0.7571961931052693
  0.5619734615993736  0.4488424204894664  0.2428036358039412
  0.0549575674148248  0.2704560912010471  0.9622563341299444
  0.9450419576309979  0.7295437309579436  0.0377434947792659
  0.4450419576309979  0.7704560912010470  0.5377434947792661
  0.5549578040452592  0.2295437309579435  0.4622563341299447
  0.7027295691532491  0.1147716223840027  0.8870688003871338
  0.2972701925230075  0.8852281997749879  0.1129310285220766
  0.7972701925230079  0.6147716223840026  0.6129310285220767
  0.2027295691532495  0.3852281997749878  0.3870688003871339
 
  0.00000000E+00  0.00000000E+00  0.00000000E+00
  0.00000000E+00  0.00000000E+00  0.00000000E+00
  0.00000000E+00  0.00000000E+00  0.00000000E+00
  0.00000000E+00  0.00000000E+00  0.00000000E+00
  0.00000000E+00  0.00000000E+00  0.00000000E+00
  0.00000000E+00  0.00000000E+00  0.00000000E+00
  0.00000000E+00  0.00000000E+00  0.00000000E+00
  0.00000000E+00  0.00000000E+00  0.00000000E+00
  0.00000000E+00  0.00000000E+00  0.00000000E+00
  0.00000000E+00  0.00000000E+00  0.00000000E+00
  0.00000000E+00  0.00000000E+00  0.00000000E+00
  0.00000000E+00  0.00000000E+00  0.00000000E+00
  0.00000000E+00  0.00000000E+00  0.00000000E+00
  0.00000000E+00  0.00000000E+00  0.00000000E+00
  0.00000000E+00  0.00000000E+00  0.00000000E+00
  0.00000000E+00  0.00000000E+00  0.00000000E+00
