\b_glycine                               
   1.00000000000000     
     5.0763998032000002    0.0000000000000000    0.0000000000000000
     0.0000000000000000    6.1820001602000003    0.0000000000000000
    -2.1394756205999998    0.0000000000000000    4.9440360886999999
   C    H    N    O 
     4    10     2     4
Direct
  0.1367303733891825  0.3819763901382567  0.5573550836093339
  0.8632696267151884  0.8819763901220846  0.4426449164513466
  0.1174023525553940  0.3960648178537887  0.2674911374928883
  0.8825976772181444  0.8960648178376096  0.7325088923005878
  0.1306750068334258  0.5686564334753874  0.2216159736796568
  0.8693249780937885  0.0686564333298043  0.7783839964459643
  0.9120675470612605  0.3318725508777816  0.1228555238595201
  0.0879324380718693  0.8318725508616093  0.8771444762011599
  0.3557535164263882  0.3072733535714269  0.0377311992294831
  0.6442464538539401  0.8072733535552555 -0.0377311769197769
  0.5579047992908407  0.3330291696933114  0.3759078064509537
  0.4420952007282800  0.8330291994409648  0.6240921934074561
  0.3420171170066557  0.1150529166051415  0.2611238423997344
  0.6579829127668829  0.6150529463527946  0.7388761873937342
  0.3567212412894344  0.2800531867988827  0.2340397506910614
  0.6432787587296939  0.7800531867827036  0.7659602491673561
  0.9077406825686747  0.4102301509442783  0.5943939889962233
  0.0922593175356970  0.9102301211642745  0.4056060110644572
  0.3837563428260650  0.3514510265152481  0.7436285433743616
  0.6162436870237928  0.8514510266608313  0.2563714566863119
 
  0.00000000E+00  0.00000000E+00  0.00000000E+00
  0.00000000E+00  0.00000000E+00  0.00000000E+00
  0.00000000E+00  0.00000000E+00  0.00000000E+00
  0.00000000E+00  0.00000000E+00  0.00000000E+00
  0.00000000E+00  0.00000000E+00  0.00000000E+00
  0.00000000E+00  0.00000000E+00  0.00000000E+00
  0.00000000E+00  0.00000000E+00  0.00000000E+00
  0.00000000E+00  0.00000000E+00  0.00000000E+00
  0.00000000E+00  0.00000000E+00  0.00000000E+00
  0.00000000E+00  0.00000000E+00  0.00000000E+00
  0.00000000E+00  0.00000000E+00  0.00000000E+00
  0.00000000E+00  0.00000000E+00  0.00000000E+00
  0.00000000E+00  0.00000000E+00  0.00000000E+00
  0.00000000E+00  0.00000000E+00  0.00000000E+00
  0.00000000E+00  0.00000000E+00  0.00000000E+00
  0.00000000E+00  0.00000000E+00  0.00000000E+00
  0.00000000E+00  0.00000000E+00  0.00000000E+00
  0.00000000E+00  0.00000000E+00  0.00000000E+00
  0.00000000E+00  0.00000000E+00  0.00000000E+00
  0.00000000E+00  0.00000000E+00  0.00000000E+00
