H20 C12 N4 O4
1.0
   6.2150797348435818    0.0000000000000000    1.3034929917481812
  -0.1175715761571120    6.4337461470660884    1.0978434677093956
   0.0000000000000000    0.0000000000000000    8.3705999999999996
H C N O
20 12 4 4
direct
   0.2864604432957000    0.5259994138252000    0.6407731811373000 H
   0.7135395567043000    0.4740005861748000    0.3592268188627000 H
   0.1855340128424000    0.6031261556119000    0.8329165223995000 H
   0.8144659871576000    0.3968738443881000    0.1670834776005000 H
   0.5221685225246999    0.8186704003219000    0.5870232275109000 H
   0.4778314774753000    0.1813295996781000    0.4129767724891000 H
   0.4844417451979000    0.8376794932736999    0.7982398301058000 H
   0.5155582548021000    0.1623205067263001    0.2017601698942000 H
   0.8207844399906000    0.6821292628466999    0.7905154582642000 H
   0.1792155600094000    0.3178707371533001    0.2094845417358000 H
   0.8156918773602000    0.5880223768408001    0.6044482891116000 H
   0.1843081226398000    0.4119776231591999    0.3955517108884000 H
   0.9178790959532600    0.2902003781267000    0.9054174608744100 H
   0.0821209040467400    0.7097996218733000    0.0945825391255900 H
   0.7010828793087001    0.1096495045051000    0.9392520421879500 H
   0.2989171206913000    0.8903504954949000    0.0607479578120500 H
   0.1670262823314000    0.0898815685826700    0.7715967622157001 H
   0.8329737176686001    0.9101184314173300    0.2284032377843000 H
   0.1405133694488000    0.9908520541252260    0.5910852517360000 H
   0.8594866305512000    0.0091479458747740    0.4089147482640000 H
   0.4290458462727000    0.3687026215304000    0.8350309599630000 C
   0.5709541537273000    0.6312973784696000    0.1649690400370000 C
   0.3324567010842000    0.5616498851018000    0.7523746162099000 C
   0.6675432989158000    0.4383501148982000    0.2476253837901000 C
   0.5114941643349999    0.7291188548640000    0.7105466367449000 C
   0.4885058356650000    0.2708811451360000    0.2894533632551000 C
   0.7192500422659001    0.6075787577904000    0.7253407905529000 C
   0.2807499577341000    0.3924212422096000    0.2746592094471000 C
   0.7891704823218000    0.2384222553031000    0.8516254510907000 C
   0.2108295176782000    0.7615777446969000    0.1483745489093000 C
   0.8835899617390000    0.1519762818291000    0.6932056862065000 C
   0.1164100382610000    0.8480237181709001    0.3067943137935000 C
   0.6418764172229000    0.4041532161775000    0.8212396222625999 N
   0.3581235827771000    0.5958467838225000    0.1787603777374000 N
   0.0777714086343700    0.0667833336428800    0.6876004741727000 N
   0.9222285913656300    0.9332166663571200    0.3123995258273000 N
   0.3304731784037001    0.2039343383028000    0.9033333803511000 O
   0.6695268215962999    0.7960656616971999    0.0966666196489000 O
   0.7771415549832000    0.1559629658504000    0.5836608090427999 O
   0.2228584450168000    0.8440370341496000    0.4163391909572000 O
