H40 C24 N8 O8
1.0
   6.3358630600525814    0.0000000000000000   -0.9514236145172863
   0.0000000000000010    6.4231999999999996    0.0000000000000004
   0.0000000000000000    0.0000000000000000   16.4170000000000016
H C N O
40 24 8 8
direct
   0.5158336629472999    0.8197626578131000    0.4265317795991000 H
   0.4841663370527000    0.3197626578131000    0.0734682204009000 H
   0.4841663370527000    0.1802373421869000    0.5734682204009001 H
   0.5158336629472999    0.6802373421869000    0.9265317795990999 H
   0.5980049511273999    0.7781411857523000    0.3301457791789000 H
   0.4019950488726000    0.2781411857523000    0.1698542208211000 H
   0.4019950488726000    0.2218588142477000    0.6698542208211000 H
   0.5980049511273999    0.7218588142477000    0.8301457791789000 H
   0.8162633891452000    0.0360019598307000    0.4572779535010000 H
   0.1837366108548000    0.5360019598307000    0.0427220464990000 H
   0.1837366108548000    0.9639980401693000    0.5427220464990000 H
   0.8162633891452000    0.4639980401693000    0.9572779535010000 H
   0.8505840672471000    0.0542457512615400    0.3532618181060000 H
   0.1494159327529000    0.5542457512615400    0.1467381818940000 H
   0.1494159327529000    0.9457542487384600    0.6467381818940000 H
   0.8505840672471000    0.4457542487384600    0.8532618181060000 H
   0.5977820042002000    0.3377327903210000    0.4474837705793000 H
   0.4022179957998000    0.8377327903210000    0.0525162294207000 H
   0.4022179957998000    0.6622672096790000    0.5525162294207000 H
   0.5977820042002000    0.1622672096790000    0.9474837705793000 H
   0.7019826704753001    0.3889705792884000    0.3552543710989000 H
   0.2980173295247000    0.8889705792884000    0.1447456289011000 H
   0.2980173295247000    0.6110294207116000    0.6447456289011000 H
   0.7019826704753001    0.1110294207116000    0.8552543710989000 H
   0.1207799389042000    0.3256488186594000    0.2804923323200000 H
   0.8792200610958000    0.8256488186594000    0.2195076676800000 H
   0.8792200610958000    0.6743511813406000    0.7195076676800001 H
   0.1207799389042000    0.1743511813406000    0.7804923323199999 H
   0.3115898791923000    0.5251328642666000    0.2987941944975000 H
   0.6884101208077000    0.0251328642666000    0.2012058055025000 H
   0.6884101208077000    0.4748671357334000    0.7012058055025000 H
   0.3115898791923000    0.9748671357334000    0.7987941944975000 H
   0.9941286486446741    0.6620187898920999    0.4541775933412000 H
   0.0058713513553259    0.1620187898920999    0.0458224066588000 H
   0.0058713513553259    0.3379812101079001    0.5458224066588000 H
   0.9941286486446741    0.8379812101079001    0.9541775933412000 H
   0.0949263536341600    0.7354284633530001    0.3631396789884000 H
   0.9050736463658400    0.2354284633530002    0.1368603210116000 H
   0.9050736463658400    0.2645715366469999    0.6368603210116000 H
   0.0949263536341600    0.7645715366469999    0.8631396789884000 H
   0.3674268486790000    0.0214097095656200    0.3323301628779000 C
   0.6325731513210000    0.5214097095656200    0.1676698371221000 C
   0.6325731513210000    0.9785902904343800    0.6676698371220999 C
   0.3674268486790000    0.4785902904343800    0.8323301628779001 C
   0.5580113240633000    0.8987420234202000    0.3721513368392000 C
   0.4419886759367000    0.3987420234202000    0.1278486631608000 C
   0.4419886759367000    0.1012579765798000    0.6278486631608000 C
   0.5580113240633000    0.6012579765798000    0.8721513368392000 C
   0.7335559279948001    0.0608808572962300    0.3951711566349000 C
   0.2664440720052000    0.5608808572962301    0.1048288433651000 C
   0.2664440720052000    0.9391191427037699    0.6048288433651000 C
   0.7335559279948001    0.4391191427037700    0.8951711566349000 C
   0.6193216373690000    0.2734236075196000    0.3874625116871000 C
   0.3806783626310000    0.7734236075195999    0.1125374883129000 C
   0.3806783626310000    0.7265763924804001    0.6125374883129000 C
   0.6193216373690000    0.2265763924804000    0.8874625116871000 C
   0.2511941482372000    0.3848639777812000    0.3249362251035000 C
   0.7488058517628000    0.8848639777812000    0.1750637748965000 C
   0.7488058517628000    0.6151360222188000    0.6750637748965000 C
   0.2511941482372000    0.1151360222188000    0.8249362251035000 C
   0.1601501710546001    0.4366516908022000    0.4039095603779000 C
   0.8398498289453999    0.9366516908022000    0.0960904396221000 C
   0.8398498289453999    0.5633483091978000    0.5960904396221001 C
   0.1601501710546001    0.0633483091978000    0.9039095603778999 C
   0.4128617509508000    0.2272209900621000    0.3393494936256000 N
   0.5871382490492000    0.7272209900621001    0.1606505063744000 N
   0.5871382490492000    0.7727790099378999    0.6606505063743999 N
   0.4128617509508000    0.2727790099379000    0.8393494936256001 N
   0.0748100291769900    0.6263503292438000    0.4064866638810000 N
   0.9251899708230100    0.1263503292438000    0.0935133361190000 N
   0.9251899708230100    0.3736496707562000    0.5935133361189999 N
   0.0748100291769900    0.8736496707562000    0.9064866638810001 N
   0.1968673018098001    0.9478556614340600    0.2986036005219000 O
   0.8031326981901999    0.4478556614340600    0.2013963994781000 O
   0.8031326981901999    0.0521443385659400    0.7013963994781001 O
   0.1968673018098001    0.5521443385659400    0.7986036005218999 O
   0.1617970910461000    0.3036286831856000    0.4589705981382000 O
   0.8382029089539000    0.8036286831856000    0.0410294018618000 O
   0.8382029089539000    0.6963713168144000    0.5410294018618000 O
   0.1617970910461000    0.1963713168144000    0.9589705981382000 O
