Orthorhombic acethylen crystal          
   1.00000000000000     
     6.1979990000000003    0.0000000000000000    0.0000000000000000
     0.0000000000000000    6.0229990000000004    0.0000000000000000
     0.0000000000000000    0.0000000000000000    5.5780000000000003
   C    H 
     8     8
Direct
  0.0621103868461109  0.0773722319363736  0.0000000000000000
  0.9378896131538892  0.9226276020333792  0.0000000000000000
  0.5621104675173103  0.4226276850485028 -0.0000000000000000
  0.4378895324826896  0.5773723149514971  0.0000000000000000
  0.0621103868461109  0.5773723149514971  0.5000000000000000
  0.9378896131538892  0.4226276850485028  0.5000000000000000
  0.5621104675173103  0.9226276020333792  0.5000000000000000
  0.4378895324826896  0.0773722319363736  0.5000000000000000
  0.1728223584438063  0.2151962024447975 -0.0000000000000000
  0.8271776415561939  0.7848037975552022 -0.0000000000000000
  0.6728222777726066  0.2848037145400788  0.0000000000000000
  0.3271775608849943  0.7151962854599214 -0.0000000000000000
  0.1728223584438063  0.7151962854599214  0.5000000000000000
  0.8271776415561939  0.2848037145400788  0.5000000000000000
  0.6728222777726066  0.7848037975552022  0.5000000000000000
  0.3271775608849943  0.2151962024447975  0.5000000000000000
 
  0.00000000E+00  0.00000000E+00  0.00000000E+00
  0.00000000E+00  0.00000000E+00  0.00000000E+00
  0.00000000E+00  0.00000000E+00  0.00000000E+00
  0.00000000E+00  0.00000000E+00  0.00000000E+00
  0.00000000E+00  0.00000000E+00  0.00000000E+00
  0.00000000E+00  0.00000000E+00  0.00000000E+00
  0.00000000E+00  0.00000000E+00  0.00000000E+00
  0.00000000E+00  0.00000000E+00  0.00000000E+00
  0.00000000E+00  0.00000000E+00  0.00000000E+00
  0.00000000E+00  0.00000000E+00  0.00000000E+00
  0.00000000E+00  0.00000000E+00  0.00000000E+00
  0.00000000E+00  0.00000000E+00  0.00000000E+00
  0.00000000E+00  0.00000000E+00  0.00000000E+00
  0.00000000E+00  0.00000000E+00  0.00000000E+00
  0.00000000E+00  0.00000000E+00  0.00000000E+00
  0.00000000E+00  0.00000000E+00  0.00000000E+00
