cubic acethylene                        
   1.00000000000000     
     6.1050000000000004    0.0000000000000000    0.0000000000000000
     0.0000000000000000    6.1050000000000004    0.0000000000000000
     0.0000000000000000    0.0000000000000000    6.1050000000000004
   C    H 
     8     8
Direct
  0.0571329481616919  0.0571329481616919  0.0571329481616919
  0.9428668880381488  0.9428668880381488  0.9428668880381488
  0.4428668880381489  0.9428668880381488  0.5571329481616920
  0.5571329481616920  0.0571329481616919  0.4428668880381489
  0.9428668880381488  0.5571329481616920  0.4428668880381489
  0.0571329481616919  0.4428668880381489  0.5571329481616920
  0.5571329481616920  0.4428668880381489  0.9428668880381488
  0.4428668880381489  0.5571329481616920  0.0571329481616919
  0.1588006052735418  0.1588006052735418  0.1588006052735418
  0.8411992309262989  0.8411992309262989  0.8411992309262989
  0.3411992309262990  0.8411992309262989  0.6588006052735419
  0.6588006052735419  0.1588006052735418  0.3411992309262990
  0.8411992309262989  0.6588006052735419  0.3411992309262990
  0.1588006052735418  0.3411992309262990  0.6588006052735419
  0.6588006052735419  0.3411992309262990  0.8411992309262989
  0.3411992309262990  0.6588006052735419  0.1588006052735418
 
  0.00000000E+00  0.00000000E+00  0.00000000E+00
  0.00000000E+00  0.00000000E+00  0.00000000E+00
  0.00000000E+00  0.00000000E+00  0.00000000E+00
  0.00000000E+00  0.00000000E+00  0.00000000E+00
  0.00000000E+00  0.00000000E+00  0.00000000E+00
  0.00000000E+00  0.00000000E+00  0.00000000E+00
  0.00000000E+00  0.00000000E+00  0.00000000E+00
  0.00000000E+00  0.00000000E+00  0.00000000E+00
  0.00000000E+00  0.00000000E+00  0.00000000E+00
  0.00000000E+00  0.00000000E+00  0.00000000E+00
  0.00000000E+00  0.00000000E+00  0.00000000E+00
  0.00000000E+00  0.00000000E+00  0.00000000E+00
  0.00000000E+00  0.00000000E+00  0.00000000E+00
  0.00000000E+00  0.00000000E+00  0.00000000E+00
  0.00000000E+00  0.00000000E+00  0.00000000E+00
  0.00000000E+00  0.00000000E+00  0.00000000E+00
