gam_glycine                             
   1.00000000000000     
     6.9749999045999997    0.0000000000000000    0.0000000000000000
    -3.4874999522999999    6.0405271088000001    0.0000000000000000
     0.0000000000000000    0.0000000000000000    5.4730000496000004
   C    H    N    O 
     6    15     3     6
Direct
  0.3935775706790429 -0.0011618278657170  0.1027565420664745
  0.0011618406743371  0.3947394113588508  0.7694232210237800
  0.6052606184920442  0.6064224592514829  0.4360898777994695
  0.3966203923401811  0.9728719814828252  0.3797485841242998
  0.0271280483018336  0.4237484406647520  0.0464152520456046
  0.5762515593690274  0.6033796375160926  0.7130818975660412
  0.2496421902097672  0.0199609288648068  0.6960671924026701
  0.9800390524339289  0.2296812575928898  0.3627338489956426
  0.7703187275153639  0.7503578395665210  0.0294005262354245
  0.2914441202738965  0.1950272470724238  0.4564077275018334
  0.8049727826357022  0.0964168731464272  0.1230743990774457
  0.9035831269310508  0.7085559096129803  0.7897410707261442
  0.0804493963260349  0.9262884338849953  0.4460142932526548
  0.0737115512157265  0.1541609476244614  0.1126809573369437
  0.8458390674182970  0.9195505738586753  0.7793476364769655
  0.5639772875304009  0.0770244836827140  0.4549175164499911
  0.9229755312035609  0.4869528186994941  0.1215841807169964
  0.5130471812086398  0.4360227123847102  0.7882508596743020
  0.3437488738580015  0.7991327021370425  0.4217807461826344
  0.2008672978811832  0.5446162015868679  0.0884474104496396
  0.4553838281505534  0.6562510963423123  0.7551140596243759
  0.2434216106229527  0.0304387158968148  0.5030313509656488
  0.9695613045010768  0.2129829003975408  0.1696980225412684
  0.7870171293643587  0.7565783743024925  0.8363646644073974
  0.2358383943259407  0.0173351047945735  0.0108477798423206
  0.9826648943411435  0.2185032885791049  0.6775144542317458
  0.7814966965357567  0.7641615907667731  0.3441811110074280
  0.5445341127642626  0.9922496683165611  0.9819883114474440
  0.0077503474633070  0.5522844443973671  0.6486549384405568
  0.4477155256725908  0.4554658871867452  0.3153216249988150
 
  0.00000000E+00  0.00000000E+00  0.00000000E+00
  0.00000000E+00  0.00000000E+00  0.00000000E+00
  0.00000000E+00  0.00000000E+00  0.00000000E+00
  0.00000000E+00  0.00000000E+00  0.00000000E+00
  0.00000000E+00  0.00000000E+00  0.00000000E+00
  0.00000000E+00  0.00000000E+00  0.00000000E+00
  0.00000000E+00  0.00000000E+00  0.00000000E+00
  0.00000000E+00  0.00000000E+00  0.00000000E+00
  0.00000000E+00  0.00000000E+00  0.00000000E+00
  0.00000000E+00  0.00000000E+00  0.00000000E+00
  0.00000000E+00  0.00000000E+00  0.00000000E+00
  0.00000000E+00  0.00000000E+00  0.00000000E+00
  0.00000000E+00  0.00000000E+00  0.00000000E+00
  0.00000000E+00  0.00000000E+00  0.00000000E+00
  0.00000000E+00  0.00000000E+00  0.00000000E+00
  0.00000000E+00  0.00000000E+00  0.00000000E+00
  0.00000000E+00  0.00000000E+00  0.00000000E+00
  0.00000000E+00  0.00000000E+00  0.00000000E+00
  0.00000000E+00  0.00000000E+00  0.00000000E+00
  0.00000000E+00  0.00000000E+00  0.00000000E+00
  0.00000000E+00  0.00000000E+00  0.00000000E+00
  0.00000000E+00  0.00000000E+00  0.00000000E+00
  0.00000000E+00  0.00000000E+00  0.00000000E+00
  0.00000000E+00  0.00000000E+00  0.00000000E+00
  0.00000000E+00  0.00000000E+00  0.00000000E+00
  0.00000000E+00  0.00000000E+00  0.00000000E+00
  0.00000000E+00  0.00000000E+00  0.00000000E+00
  0.00000000E+00  0.00000000E+00  0.00000000E+00
  0.00000000E+00  0.00000000E+00  0.00000000E+00
  0.00000000E+00  0.00000000E+00  0.00000000E+00
