Monoclinic crystal                      
1.00000000000000     
4.6259990000000002    0.0000000000000000    0.0000000000000000
0.0000000000000000    6.6199990000000000    0.0000000000000000
-0.3113080000000000    0.0000000000000000    4.0550670000000002
C    H 
4    8
Direct
0.8817422779763461  0.0547195170719445  0.9587947042458929
0.1182575058541290  0.9452804829280554  0.0412052957541071
0.6182576222365669  0.5547195926006550  0.5412054190566344
0.3817423943587910  0.4452804073993451  0.4587948275484131
0.8075353750571699  0.1737125628973624  0.1195439852624879
0.1924644087733051  0.8262874371026373  0.8804560147375124
0.6924647247299101  0.6737124873686523  0.3804558914349919
0.3075352752700900  0.3262875126313479  0.6195441085650077
0.7511608592123038  0.0301963070038163  0.7262303753592704
0.2488391407876962  0.9698036929961839  0.2737696246407295
0.7488390410006163  0.5301963825325336  0.7737697479432569
0.2511607428298588  0.4698036174674662  0.2262302520567433
 
0.00000000E+00  0.00000000E+00  0.00000000E+00
0.00000000E+00  0.00000000E+00  0.00000000E+00
0.00000000E+00  0.00000000E+00  0.00000000E+00
0.00000000E+00  0.00000000E+00  0.00000000E+00
0.00000000E+00  0.00000000E+00  0.00000000E+00
0.00000000E+00  0.00000000E+00  0.00000000E+00
0.00000000E+00  0.00000000E+00  0.00000000E+00
0.00000000E+00  0.00000000E+00  0.00000000E+00
0.00000000E+00  0.00000000E+00  0.00000000E+00
0.00000000E+00  0.00000000E+00  0.00000000E+00
0.00000000E+00  0.00000000E+00  0.00000000E+00
0.00000000E+00  0.00000000E+00  0.00000000E+00
