H40 C24 N8 O8
1.0
   6.6497294984347786    0.0000000000000000   -1.0060331791975561
   0.0000000000000021   13.2571999999999992    0.0000000000000008
   0.0000000000000000    0.0000000000000000    8.0528999999999993
H C N O
40 24 8 8
direct
   0.2828912173358000    0.5941966095191999    0.3160539295783000 H
   0.2171087826642000    0.0941966095191999    0.1839460704217000 H
   0.7171087826642000    0.4058033904808001    0.6839460704217000 H
   0.7828912173358000    0.9058033904808001    0.8160539295783000 H
   0.2867581098306000    0.4903968594120000    0.4541488501381000 H
   0.2132418901694000    0.9903968594120001    0.0458511498619000 H
   0.7132418901694000    0.5096031405879999    0.5458511498619000 H
   0.7867581098306000    0.0096031405880000    0.9541488501381000 H
   0.4589006270621000    0.5067505555078000    0.1272144307897000 H
   0.0410993729379000    0.0067505555078000    0.3727855692103000 H
   0.5410993729379000    0.4932494444922000    0.8727855692103000 H
   0.9589006270621000    0.9932494444922000    0.6272144307897000 H
   0.5544461392622000    0.4331647528927000    0.3007486163745000 H
   0.9455538607378000    0.9331647528927001    0.1992513836255000 H
   0.4455538607378000    0.5668352471072999    0.6992513836255000 H
   0.0544461392622000    0.0668352471073000    0.8007486163745000 H
   0.3211060555488000    0.3516632266484000    0.0125437554568600 H
   0.1788939444512000    0.8516632266484000    0.4874562445431400 H
   0.6788939444512000    0.6483367733516000    0.9874562445431400 H
   0.8211060555488000    0.1483367733516000    0.5125437554568600 H
   0.3240298943905000    0.2967667015694000    0.2139791093320000 H
   0.1759701056095000    0.7967667015694000    0.2860208906680000 H
   0.6759701056095000    0.7032332984306000    0.7860208906680000 H
   0.8240298943905000    0.2032332984306000    0.7139791093320000 H
   0.7852910377419000    0.3906098715728000    0.0395974022534400 H
   0.7147089622581000    0.8906098715728000    0.4604025977465600 H
   0.2147089622581000    0.6093901284272000    0.9604025977465600 H
   0.2852910377419000    0.1093901284272000    0.5395974022534400 H
   0.9473146254749900    0.3186757698179000    0.9322752193715200 H
   0.5526853745250100    0.8186757698179000    0.5677247806284800 H
   0.0526853745250100    0.6813242301821000    0.0677247806284800 H
   0.4473146254749900    0.1813242301821000    0.4322752193715200 H
   0.6635350965158999    0.1310735326993000    0.1402002292296000 H
   0.8364649034841001    0.6310735326993000    0.3597997707704000 H
   0.3364649034841000    0.8689264673007000    0.8597997707704000 H
   0.1635350965159000    0.3689264673007000    0.6402002292296000 H
   0.6228678791986000    0.2190326584822000    0.9729493454298400 H
   0.8771321208014000    0.7190326584822000    0.5270506545701600 H
   0.3771321208014000    0.7809673415178000    0.0270506545701600 H
   0.1228678791986000    0.2809673415178000    0.4729493454298400 H
   0.0623311316409100    0.4771855189301000    0.2411870305112000 C
   0.4376688683590900    0.9771855189301000    0.2588129694888000 C
   0.9376688683590900    0.5228144810699000    0.7588129694887999 C
   0.5623311316409100    0.0228144810699000    0.7411870305112001 C
   0.2694383527750000    0.5122259436782000    0.3216718018815000 C
   0.2305616472250000    0.0122259436782000    0.1783281981185000 C
   0.7305616472250001    0.4877740563218000    0.6783281981185000 C
   0.7694383527749999    0.9877740563218000    0.8216718018815000 C
   0.4153794040760000    0.4566709170926000    0.2232076930610000 C
   0.0846205959240000    0.9566709170926000    0.2767923069390000 C
   0.5846205959240001    0.5433290829074000    0.7767923069390000 C
   0.9153794040759999    0.0433290829074000    0.7232076930610000 C
   0.2938843901531000    0.3662839676376000    0.1408970074013000 C
   0.2061156098469000    0.8662839676376000    0.3591029925987000 C
   0.7061156098469000    0.6337160323624000    0.8591029925986999 C
   0.7938843901531000    0.1337160323624000    0.6408970074013001 C
   0.9165080860201000    0.3410114954445000    0.0568601144419500 C
   0.5834919139799000    0.8410114954445000    0.4431398855580500 C
   0.0834919139799000    0.6589885045555000    0.9431398855580500 C
   0.4165080860201000    0.1589885045555000    0.5568601144419500 C
   0.8670315002669999    0.2466113387160000    0.1541558443478000 C
   0.6329684997330001    0.7466113387160001    0.3458441556522000 C
   0.1329684997330000    0.7533886612839999    0.8458441556522001 C
   0.3670315002670000    0.2533886612840000    0.6541558443477999 C
   0.0849413140172300    0.3971575277757000    0.1412221516887000 N
   0.4150586859827700    0.8971575277757000    0.3587778483113000 N
   0.9150586859827700    0.6028424722243000    0.8587778483113000 N
   0.5849413140172300    0.1028424722243000    0.6412221516887000 N
   0.7051847558370000    0.1953216261203000    0.0831476114797500 N
   0.7948152441630000    0.6953216261203000    0.4168523885202500 N
   0.2948152441630000    0.8046783738797000    0.9168523885202500 N
   0.2051847558370000    0.3046783738797000    0.5831476114797500 N
   0.8974821637663000    0.5129386430518000    0.2618576066364000 O
   0.6025178362337000    0.0129386430517999    0.2381423933636000 O
   0.1025178362337000    0.4870613569482000    0.7381423933636000 O
   0.3974821637663000    0.9870613569482000    0.7618576066364000 O
   0.9722812199640100    0.2211844912093000    0.2879586615951000 O
   0.5277187800359900    0.7211844912092999    0.2120413384049000 O
   0.0277187800359900    0.7788155087907001    0.7120413384049000 O
   0.4722812199640100    0.2788155087907000    0.7879586615951000 O
