\a-Glycine                              
   1.00000000000000     
     5.0865998267999997    0.0000000000000000    0.0000000000000000
     0.0000000000000000   11.7730998993000000    0.0000000000000000
    -2.0442809366999999    0.0000000000000000    5.0623170495999998
   C    H    N    O 
     8    20     4     8
Direct
  0.0623397410823004  0.1261083159915166  0.0616510652111332
  0.9376602289679682  0.8738916839829967  0.9383489346703486
  0.4376602588443572  0.6261083160212453  0.4383489346308350
  0.5623397709707901  0.3738916840382128  0.5616510652506390
  0.0549350379084192  0.1460619542604244  0.7828485253432611
  0.9450649546330703  0.8539380308496979  0.2171514747357585
  0.4450649545997959  0.6460619691545512  0.7171514747752645
  0.5549350454122979  0.3539380308199688  0.2828485253037474
  0.2800175983370471  0.0961528224582575  0.5406286181336831
  0.7199824016705846  0.9038471551771965  0.4593714117735716
  0.2199824016417788  0.5961528448270454  0.9593713819848425
  0.7800175983747836  0.4038471849612014  0.0406285882659343
  0.4900749920864130  0.1162303165777074  0.8665761267127025
  0.5099250079865172  0.8837697057358710  0.1334238583534232
  0.0099250080096169  0.6162302942683709  0.6334238732082852
  0.9900749919230876  0.3837696759773537  0.3665761266731958
  0.2840922425835521 -0.0002759281279886  0.7734324637483053
  0.7159077573491527  0.0002759574915434  0.2265675361331693
  0.2159077573158850  0.4997240425127055  0.7265675361726752
  0.7840922426168194  0.5002759276480810  0.2734324637087988
  0.0760053157264307  0.2376828547950557  0.7547620647893967
  0.9239946694052845  0.7623171303150661  0.2452379202767285
  0.4239946694283846  0.7376828696891758  0.7452379351315910
  0.5760053305043273  0.2623171302853375  0.2547620647498909
  0.8517611983076308  0.1175800514226881  0.6349995822201029
  0.1482388166501462  0.8824199783655585  0.3650003880306738
  0.6482388016311205  0.6175800216386834  0.8650004177008777
  0.3517611982971220  0.3824199486070411  0.1349996120088324
  0.2904367492043403  0.0864184537604542  0.7381788805570616
  0.7095632510043534  0.9135815388243359  0.2618211195219577
  0.2095632508916895  0.5864184611799131  0.7618211193639260
  0.7904367490410148  0.4135815387946071  0.2381788805175482
  0.2958931827486356  0.0955451765464787  0.2373193277008771
  0.7041068470056753  0.9044548458520449  0.7626806871934841
  0.2041068173137853  0.5955451541522041  0.2626806871539780
  0.7958931530124720  0.4044548160085896  0.7373193129250344
  0.8338901373976323  0.1426096430205713  0.1005667751693327
  0.1661098775441724  0.8573903569539483  0.8994332322185854
  0.6661098627156140  0.6426096430502937  0.3994332323766168
  0.3338901372964790  0.3573903570091577  0.6005667677023951
 
  0.00000000E+00  0.00000000E+00  0.00000000E+00
  0.00000000E+00  0.00000000E+00  0.00000000E+00
  0.00000000E+00  0.00000000E+00  0.00000000E+00
  0.00000000E+00  0.00000000E+00  0.00000000E+00
  0.00000000E+00  0.00000000E+00  0.00000000E+00
  0.00000000E+00  0.00000000E+00  0.00000000E+00
  0.00000000E+00  0.00000000E+00  0.00000000E+00
  0.00000000E+00  0.00000000E+00  0.00000000E+00
  0.00000000E+00  0.00000000E+00  0.00000000E+00
  0.00000000E+00  0.00000000E+00  0.00000000E+00
  0.00000000E+00  0.00000000E+00  0.00000000E+00
  0.00000000E+00  0.00000000E+00  0.00000000E+00
  0.00000000E+00  0.00000000E+00  0.00000000E+00
  0.00000000E+00  0.00000000E+00  0.00000000E+00
  0.00000000E+00  0.00000000E+00  0.00000000E+00
  0.00000000E+00  0.00000000E+00  0.00000000E+00
  0.00000000E+00  0.00000000E+00  0.00000000E+00
  0.00000000E+00  0.00000000E+00  0.00000000E+00
  0.00000000E+00  0.00000000E+00  0.00000000E+00
  0.00000000E+00  0.00000000E+00  0.00000000E+00
  0.00000000E+00  0.00000000E+00  0.00000000E+00
  0.00000000E+00  0.00000000E+00  0.00000000E+00
  0.00000000E+00  0.00000000E+00  0.00000000E+00
  0.00000000E+00  0.00000000E+00  0.00000000E+00
  0.00000000E+00  0.00000000E+00  0.00000000E+00
  0.00000000E+00  0.00000000E+00  0.00000000E+00
  0.00000000E+00  0.00000000E+00  0.00000000E+00
  0.00000000E+00  0.00000000E+00  0.00000000E+00
  0.00000000E+00  0.00000000E+00  0.00000000E+00
  0.00000000E+00  0.00000000E+00  0.00000000E+00
  0.00000000E+00  0.00000000E+00  0.00000000E+00
  0.00000000E+00  0.00000000E+00  0.00000000E+00
  0.00000000E+00  0.00000000E+00  0.00000000E+00
  0.00000000E+00  0.00000000E+00  0.00000000E+00
  0.00000000E+00  0.00000000E+00  0.00000000E+00
  0.00000000E+00  0.00000000E+00  0.00000000E+00
  0.00000000E+00  0.00000000E+00  0.00000000E+00
  0.00000000E+00  0.00000000E+00  0.00000000E+00
  0.00000000E+00  0.00000000E+00  0.00000000E+00
  0.00000000E+00  0.00000000E+00  0.00000000E+00
