 H  C  O                                
   1.0000000000000000     
     7.6397723333367740    0.0000000000000000    0.0000000000000000
     0.0000000000000000   10.2518480965358876    0.0000000000000000
     0.0000000000000000    0.0000000000000000   11.9854337655344381
   H    C    O 
    40    52     4
Direct
  0.1189690790785747  0.5553113369064491  0.9622953181742702
  0.3810309209214253  0.4446886630935438  0.4622953181742702
  0.8810309209214253  0.0553113369064562  0.5377046818257298
  0.6189690790785747  0.9446886630935509  0.0377046818257298
  0.1657285343183901  0.3180701913260435  0.9905016289156308
  0.3342714656816099  0.6819298086739565  0.4905016289156308
  0.8342714656816099  0.8180701913260435  0.5094983710843692
  0.6657285343183901  0.1819298086739565  0.0094983710843692
  0.3261832782458640  0.1890666416685534  0.8483279716425756
  0.1738167217541360  0.8109333583314466  0.3483279716425756
  0.6738167217541360  0.6890666416685534  0.6516720283574244
  0.8261832782458640  0.3109333583314466  0.1516720283574244
  0.4445963435964018  0.2985933671303869  0.6788924881578069
  0.0554036564035982  0.7014066328696131  0.1788924881578069
  0.5554036564035982  0.7985933671303869  0.8211075118421931
  0.9445963435964018  0.2014066328696131  0.3211075118421931
  0.3975242944354491  0.5365062478726657  0.6510457435255077
  0.1024757055645509  0.4634937521273343  0.1510457435255077
  0.6024757055645509  0.0365062478726657  0.8489542564744923
  0.8975242944354491  0.9634937521273343  0.3489542564744923
  0.0353425983069044  0.9183690948594361  0.7678320843686492
  0.4646574016930956  0.0816309051405639  0.2678320843686492
  0.9646574016930956  0.4183690948594361  0.7321679156313508
  0.5353425983069044  0.5816309051405639  0.2321679156313508
  0.9976728520459375  0.0916133560801882  0.9120357659210470
  0.5023271479540625  0.9083866439198118  0.4120357659210470
  0.0023271479540625  0.5916133560801882  0.5879642340789530
  0.4976728520459375  0.4083866439198118  0.0879642340789530
  0.1525031471052856  0.0710614497402133  0.0950894053333329
  0.3474968528947073  0.9289385502597867  0.5950894053333329
  0.8474968528947144  0.5710614497402133  0.4049105946666671
  0.6525031471052856  0.4289385502597867  0.9049105946666671
  0.3297212033888286  0.8739051342786794  0.1352988151464203
  0.1702787966111714  0.1260948657213206  0.6352988151464203
  0.6702787966111714  0.3739051342786794  0.3647011848535797
  0.8297212033888286  0.6260948657213206  0.8647011848535797
  0.3605498182788907  0.6996514495454491  0.9938269700050952
  0.1394501817211093  0.3003485504545438  0.4938269700050952
  0.6394501817211022  0.1996514495454562  0.5061730299949048
  0.8605498182788978  0.8003485504545509  0.0061730299949048
  0.1924556238493764  0.4994349709828185  0.9009409000080950
  0.3075443761506236  0.5005650290171815  0.4009409000080950
  0.8075443761506165  0.9994349709828185  0.5990590999919050
  0.6924556238493835  0.0005650290171815  0.0990590999919050
  0.2162884515909980  0.3657690022875144  0.9160134916667317
  0.2837115484090020  0.6342309977124856  0.4160134916667317
  0.7837115484090020  0.8657690022875144  0.5839865083332683
  0.7162884515909980  0.1342309977124856  0.0839865083332683
  0.3075472869695091  0.2935479732796722  0.8363864118548108
  0.1924527130304909  0.7064520267203278  0.3363864118548108
  0.6924527130304909  0.7935479732796722  0.6636135881451892
  0.8075472869695091  0.2064520267203278  0.1636135881451892
  0.3740734623189113  0.3548803925343620  0.7412659228627376
  0.1259265376810887  0.6451196074656380  0.2412659228627376
  0.6259265376810887  0.8548803925343620  0.7587340771372624
  0.8740734623189113  0.1451196074656380  0.2587340771372624
  0.3484466385809810  0.4876754819430857  0.7254191729670509
  0.1515533614190190  0.5123245180569143  0.2254191729670509
  0.6515533614190190  0.9876754819430857  0.7745808270329491
  0.8484466385809810  0.0123245180569143  0.2745808270329491
  0.2573904676676904  0.5616219302213565  0.8051678389563293
  0.2426095323323096  0.4383780697786435  0.3051678389563293
  0.7426095323323096  0.0616219302213565  0.6948321610436707
  0.7573904676676904  0.9383780697786435  0.1948321610436707
  0.2217990382283190  0.7014557123376406  0.7796719598583834
  0.2782009617716810  0.2985442876623594  0.2796719598583834
  0.7782009617716810  0.2014557123376406  0.7203280401416166
  0.7217990382283190  0.7985442876623594  0.2203280401416166
  0.1982164337154160  0.7978782232019839  0.8714265611899847
  0.3017835662845840  0.2021217767980161  0.3714265611899847
  0.8017835662845840  0.2978782232019839  0.6285734388100153
  0.6982164337154160  0.7021217767980161  0.1285734388100153
  0.0982894570702513  0.9098950338352196  0.8490389347394327
  0.4017105429297416  0.0901049661647804  0.3490389347394327
  0.9017105429297487  0.4098950338352196  0.6509610652605744
  0.5982894570702513  0.5901049661647804  0.1509610652605744
  0.0790989406948341  0.0066894236097141  0.9294518664037099
  0.4209010593051659  0.9933105763902859  0.4294518664037099
  0.9209010593051659  0.5066894236097141  0.5705481335962901
  0.5790989406948341  0.4933105763902859  0.0705481335962901
  0.1635037329013613  0.9943147775404100  0.0325845007184995
  0.3364962670986387  0.0056852224595900  0.5325845007184995
  0.8364962670986387  0.4943147775404100  0.4674154992815005
  0.6635037329013613  0.5056852224595900  0.9674154992815005
  0.2639581289658963  0.8836566031069708  0.0550717504107467
  0.2360418710341037  0.1163433968930292  0.5550717504107467
  0.7360418710341037  0.3836566031069708  0.4449282495892533
  0.7639581289658963  0.6163433968930292  0.9449282495892533
  0.2804437705009661  0.7849824666022727  0.9756311455466289
  0.2195562294990339  0.2150175333977273  0.4756311455466289
  0.7195562294990339  0.2849824666022727  0.5243688544533711
  0.7804437705009661  0.7150175333977273  0.0243688544533711
  0.2119261136488930  0.7375866591166158  0.6815094263826893
  0.2880738863510999  0.2624133408833842  0.1815094263826893
  0.7880738863510999  0.2375866591166158  0.8184905736173107
  0.7119261136489001  0.7624133408833842  0.3184905736173107

  0.00000000E+00  0.00000000E+00  0.00000000E+00
  0.00000000E+00  0.00000000E+00  0.00000000E+00
  0.00000000E+00  0.00000000E+00  0.00000000E+00
  0.00000000E+00  0.00000000E+00  0.00000000E+00
  0.00000000E+00  0.00000000E+00  0.00000000E+00
  0.00000000E+00  0.00000000E+00  0.00000000E+00
  0.00000000E+00  0.00000000E+00  0.00000000E+00
  0.00000000E+00  0.00000000E+00  0.00000000E+00
  0.00000000E+00  0.00000000E+00  0.00000000E+00
  0.00000000E+00  0.00000000E+00  0.00000000E+00
  0.00000000E+00  0.00000000E+00  0.00000000E+00
  0.00000000E+00  0.00000000E+00  0.00000000E+00
  0.00000000E+00  0.00000000E+00  0.00000000E+00
  0.00000000E+00  0.00000000E+00  0.00000000E+00
  0.00000000E+00  0.00000000E+00  0.00000000E+00
  0.00000000E+00  0.00000000E+00  0.00000000E+00
  0.00000000E+00  0.00000000E+00  0.00000000E+00
  0.00000000E+00  0.00000000E+00  0.00000000E+00
  0.00000000E+00  0.00000000E+00  0.00000000E+00
  0.00000000E+00  0.00000000E+00  0.00000000E+00
  0.00000000E+00  0.00000000E+00  0.00000000E+00
  0.00000000E+00  0.00000000E+00  0.00000000E+00
  0.00000000E+00  0.00000000E+00  0.00000000E+00
  0.00000000E+00  0.00000000E+00  0.00000000E+00
  0.00000000E+00  0.00000000E+00  0.00000000E+00
  0.00000000E+00  0.00000000E+00  0.00000000E+00
  0.00000000E+00  0.00000000E+00  0.00000000E+00
  0.00000000E+00  0.00000000E+00  0.00000000E+00
  0.00000000E+00  0.00000000E+00  0.00000000E+00
  0.00000000E+00  0.00000000E+00  0.00000000E+00
  0.00000000E+00  0.00000000E+00  0.00000000E+00
  0.00000000E+00  0.00000000E+00  0.00000000E+00
  0.00000000E+00  0.00000000E+00  0.00000000E+00
  0.00000000E+00  0.00000000E+00  0.00000000E+00
  0.00000000E+00  0.00000000E+00  0.00000000E+00
  0.00000000E+00  0.00000000E+00  0.00000000E+00
  0.00000000E+00  0.00000000E+00  0.00000000E+00
  0.00000000E+00  0.00000000E+00  0.00000000E+00
  0.00000000E+00  0.00000000E+00  0.00000000E+00
  0.00000000E+00  0.00000000E+00  0.00000000E+00
  0.00000000E+00  0.00000000E+00  0.00000000E+00
  0.00000000E+00  0.00000000E+00  0.00000000E+00
  0.00000000E+00  0.00000000E+00  0.00000000E+00
  0.00000000E+00  0.00000000E+00  0.00000000E+00
  0.00000000E+00  0.00000000E+00  0.00000000E+00
  0.00000000E+00  0.00000000E+00  0.00000000E+00
  0.00000000E+00  0.00000000E+00  0.00000000E+00
  0.00000000E+00  0.00000000E+00  0.00000000E+00
  0.00000000E+00  0.00000000E+00  0.00000000E+00
  0.00000000E+00  0.00000000E+00  0.00000000E+00
  0.00000000E+00  0.00000000E+00  0.00000000E+00
  0.00000000E+00  0.00000000E+00  0.00000000E+00
  0.00000000E+00  0.00000000E+00  0.00000000E+00
  0.00000000E+00  0.00000000E+00  0.00000000E+00
  0.00000000E+00  0.00000000E+00  0.00000000E+00
  0.00000000E+00  0.00000000E+00  0.00000000E+00
  0.00000000E+00  0.00000000E+00  0.00000000E+00
  0.00000000E+00  0.00000000E+00  0.00000000E+00
  0.00000000E+00  0.00000000E+00  0.00000000E+00
  0.00000000E+00  0.00000000E+00  0.00000000E+00
  0.00000000E+00  0.00000000E+00  0.00000000E+00
  0.00000000E+00  0.00000000E+00  0.00000000E+00
  0.00000000E+00  0.00000000E+00  0.00000000E+00
  0.00000000E+00  0.00000000E+00  0.00000000E+00
  0.00000000E+00  0.00000000E+00  0.00000000E+00
  0.00000000E+00  0.00000000E+00  0.00000000E+00
  0.00000000E+00  0.00000000E+00  0.00000000E+00
  0.00000000E+00  0.00000000E+00  0.00000000E+00
  0.00000000E+00  0.00000000E+00  0.00000000E+00
  0.00000000E+00  0.00000000E+00  0.00000000E+00
  0.00000000E+00  0.00000000E+00  0.00000000E+00
  0.00000000E+00  0.00000000E+00  0.00000000E+00
  0.00000000E+00  0.00000000E+00  0.00000000E+00
  0.00000000E+00  0.00000000E+00  0.00000000E+00
  0.00000000E+00  0.00000000E+00  0.00000000E+00
  0.00000000E+00  0.00000000E+00  0.00000000E+00
  0.00000000E+00  0.00000000E+00  0.00000000E+00
  0.00000000E+00  0.00000000E+00  0.00000000E+00
  0.00000000E+00  0.00000000E+00  0.00000000E+00
  0.00000000E+00  0.00000000E+00  0.00000000E+00
  0.00000000E+00  0.00000000E+00  0.00000000E+00
  0.00000000E+00  0.00000000E+00  0.00000000E+00
  0.00000000E+00  0.00000000E+00  0.00000000E+00
  0.00000000E+00  0.00000000E+00  0.00000000E+00
  0.00000000E+00  0.00000000E+00  0.00000000E+00
  0.00000000E+00  0.00000000E+00  0.00000000E+00
  0.00000000E+00  0.00000000E+00  0.00000000E+00
  0.00000000E+00  0.00000000E+00  0.00000000E+00
  0.00000000E+00  0.00000000E+00  0.00000000E+00
  0.00000000E+00  0.00000000E+00  0.00000000E+00
  0.00000000E+00  0.00000000E+00  0.00000000E+00
  0.00000000E+00  0.00000000E+00  0.00000000E+00
  0.00000000E+00  0.00000000E+00  0.00000000E+00
  0.00000000E+00  0.00000000E+00  0.00000000E+00
  0.00000000E+00  0.00000000E+00  0.00000000E+00
  0.00000000E+00  0.00000000E+00  0.00000000E+00
