H16 C20
1.0
   6.6488738046342553    0.0000000000000000   -4.5992645379504324
   0.0000000000000010    5.9375000000000000    0.0000000000000004
   0.0000000000000000    0.0000000000000000    8.6334999999999997
H C
16 20
direct
   0.1273000000000000    0.0615000000000000    0.4628000000000000 H
   0.3727000000000000    0.5615000000000000    0.5372000000000000 H
   0.8727000000000000    0.9385000000000000    0.5372000000000000 H
   0.6273000000000000    0.4385000000000000    0.4628000000000000 H
   0.1801000000000000    0.3080000000000000    0.2717000000000000 H
   0.3199000000000000    0.8080000000000001    0.7282999999999999 H
   0.8199000000000000    0.6919999999999999    0.7282999999999999 H
   0.6801000000000000    0.1919999999999999    0.2717000000000000 H
   0.1413000000000000    0.3920000000000000    0.9741000000000000 H
   0.3587000000000000    0.8920000000000000    0.0259000000000000 H
   0.8587000000000000    0.6080000000000000    0.0259000000000000 H
   0.6413000000000000    0.1080000000000000    0.9741000000000000 H
   0.0372000000000000    0.2940000000000000    0.6685000000000000 H
   0.4628000000000000    0.7940000000000000    0.3315000000000000 H
   0.9628000000000000    0.7060000000000000    0.3315000000000000 H
   0.5372000000000000    0.2060000000000000    0.6685000000000000 H
   0.0819900000000000    0.0197900000000000    0.3295000000000000 C
   0.4180100000000000    0.5197900000000000    0.6705000000000000 C
   0.9180100000000000    0.9802100000000000    0.6705000000000000 C
   0.5819900000000000    0.4802100000000000    0.3295000000000000 C
   0.1126500000000000    0.1644900000000000    0.2234100000000000 C
   0.3873500000000000    0.6644900000000000    0.7765900000000000 C
   0.8873500000000000    0.8355100000000000    0.7765900000000000 C
   0.6126500000000000    0.3355100000000000    0.2234100000000000 C
   0.0481100000000000    0.1058800000000000    0.0374900000000000 C
   0.4518900000000000    0.6058800000000000    0.9625100000000000 C
   0.9518900000000000    0.8941200000000000    0.9625100000000000 C
   0.5481100000000000    0.3941200000000000    0.0374900000000000 C
   0.0768800000000000    0.2526800000000000    0.9246400000000000 C
   0.4231200000000000    0.7526800000000000    0.0753600000000000 C
   0.9231199999999999    0.7473200000000000    0.0753600000000000 C
   0.5768800000000001    0.2473200000000000    0.9246400000000000 C
   0.0140300000000000    0.1910800000000000    0.7453500000000000 C
   0.4859700000000000    0.6910800000000000    0.2546500000000000 C
   0.9859700000000000    0.8089200000000000    0.2546500000000000 C
   0.5140300000000000    0.3089200000000000    0.7453500000000000 C
