H40 C24 N8 O8
1.0
   6.4444689603183294    0.0000000000000000   -0.2279738351074565
   0.0000000000000010    6.3845999999999998    0.0000000000000004
   0.0000000000000000    0.0000000000000000   16.1702000000000012
H C N O
40 24 8 8
direct
   0.7721218263552000    0.6703731157495000    0.3207551127606000 H
   0.7278781736448000    0.1703731157495000    0.1792448872394000 H
   0.2278781736448000    0.3296268842505000    0.6792448872394000 H
   0.2721218263552000    0.8296268842505000    0.8207551127606000 H
   0.7938761199180000    0.5484422335721000    0.4186648397177000 H
   0.7061238800820000    0.0484422335721000    0.0813351602823000 H
   0.2061238800820000    0.4515577664279000    0.5813351602823000 H
   0.2938761199180000    0.9515577664279000    0.9186648397177000 H
   0.0382179520374900    0.9137509832832900    0.3591435177218000 H
   0.4617820479625100    0.4137509832832900    0.1408564822782000 H
   0.9617820479625100    0.0862490167167100    0.6408564822782000 H
   0.5382179520374900    0.5862490167167100    0.8591435177218000 H
   0.0190085803943900    0.8216336666140001    0.4609611290292000 H
   0.4809914196056100    0.3216336666140000    0.0390388709708000 H
   0.9809914196056100    0.1783663333860000    0.5390388709708001 H
   0.5190085803943900    0.6783663333859999    0.9609611290291999 H
   0.3722654200158000    0.7592995802470000    0.3599801991962000 H
   0.1277345799842000    0.2592995802470000    0.1400198008038000 H
   0.6277345799842000    0.2407004197530000    0.6400198008038001 H
   0.8722654200158000    0.7407004197530000    0.8599801991961999 H
   0.3244679703038000    0.6177162737709000    0.4513594483657000 H
   0.1755320296962000    0.1177162737709000    0.0486405516343000 H
   0.6755320296962000    0.3822837262291000    0.5486405516343000 H
   0.8244679703038000    0.8822837262291000    0.9513594483657000 H
   0.3067997573710000    0.2121446489527000    0.2803024518142000 H
   0.1932002426290000    0.7121446489527000    0.2196975481858000 H
   0.6932002426290000    0.7878553510473000    0.7196975481858000 H
   0.8067997573710000    0.2878553510473001    0.7803024518142000 H
   0.5046902081318000    0.4001288514950000    0.2996934114421000 H
   0.9953097918682000    0.9001288514950000    0.2003065885579000 H
   0.4953097918682000    0.5998711485050000    0.7003065885579001 H
   0.0046902081317999    0.0998711485050001    0.7996934114420999 H
   0.6583715896480000    0.0091265123019360    0.4520570626908000 H
   0.8416284103520000    0.5091265123019360    0.0479429373092000 H
   0.3416284103520000    0.9908734876980640    0.5479429373092000 H
   0.1583715896480000    0.4908734876980640    0.9520570626908000 H
   0.7226492531071000    0.1454672831278000    0.3605993423326000 H
   0.7773507468929000    0.6454672831278000    0.1394006576674000 H
   0.2773507468929000    0.8545327168722000    0.6394006576674001 H
   0.2226492531071000    0.3545327168722001    0.8605993423325999 H
   0.0064821562607560    0.4317241908836000    0.3316713110353000 C
   0.4935178437392440    0.9317241908836000    0.1683286889647000 C
   0.9935178437392440    0.5682758091164000    0.6683286889647000 C
   0.5064821562607560    0.0682758091164000    0.8316713110353000 C
   0.8830162993232000    0.6099554028873000    0.3676658381941000 C
   0.6169837006768000    0.1099554028873000    0.1323341618059000 C
   0.1169837006768000    0.3900445971127000    0.6323341618059000 C
   0.3830162993232000    0.8900445971127000    0.8676658381941000 C
   0.0449502112201200    0.7733027696194000    0.3975751442503000 C
   0.4550497887798800    0.2733027696194000    0.1024248557497000 C
   0.9550497887798800    0.2266972303806000    0.6024248557497001 C
   0.5449502112201200    0.7266972303806000    0.8975751442502999 C
   0.2575508768755000    0.6636886291569000    0.3908586646945000 C
   0.2424491231245000    0.1636886291569000    0.1091413353055000 C
   0.7424491231245001    0.3363113708431000    0.6091413353055000 C
   0.7575508768754999    0.8363113708431000    0.8908586646945000 C
   0.3700103460177000    0.3239632945691000    0.3257728569443000 C
   0.1299896539823000    0.8239632945691000    0.1742271430557000 C
   0.6299896539823000    0.6760367054309000    0.6742271430557000 C
   0.8700103460177000    0.1760367054309000    0.8257728569443000 C
   0.4307182016876000    0.1987662517355000    0.4039014508313000 C
   0.0692817983124000    0.6987662517355000    0.0960985491687000 C
   0.5692817983124000    0.8012337482645000    0.5960985491687000 C
   0.9307182016876000    0.3012337482645000    0.9039014508313000 C
   0.2112361854998000    0.4760965007618000    0.3413943995499000 N
   0.2887638145002000    0.9760965007618000    0.1586056004501000 N
   0.7887638145002001    0.5239034992382000    0.6586056004501000 N
   0.7112361854997999    0.0239034992381999    0.8413943995499000 N
   0.6184315353745000    0.1091344393838000    0.4044529972506000 N
   0.8815684646255000    0.6091344393838000    0.0955470027494000 N
   0.3815684646255000    0.8908655606162000    0.5955470027494000 N
   0.1184315353745000    0.3908655606161999    0.9044529972506000 N
   0.9351136398311299    0.2708937330943000    0.2978530620188000 O
   0.5648863601688701    0.7708937330943000    0.2021469379812000 O
   0.0648863601688700    0.7291062669057000    0.7021469379812000 O
   0.4351136398311300    0.2291062669057000    0.7978530620188000 O
   0.3054905618875000    0.1787610208517000    0.4599976945680000 O
   0.1945094381125000    0.6787610208517000    0.0400023054320000 O
   0.6945094381125000    0.8212389791483000    0.5400023054320000 O
   0.8054905618875000    0.3212389791482999    0.9599976945680000 O
