H  C  O 
 1.0000000000000000
    16.0886326351758413    0.0000000000000000    0.0000000000000000
     0.0000000000000000    7.9334196886023696    0.0000000000000000
    -6.2332500090198799    0.0000000000000000   14.7766434597319574
 H   C   O  
  80 104   8
Cartesian
 12.0912651767710049  2.8173715921609785  0.8644372272205845
  8.9250587714828153  6.7840814364621620  6.5238845026453935
 -2.2358825506150430  5.1160480964413919 13.9122062325113731
  0.9303238546731433  1.1493382521402074  8.2527589570865629
 13.7073868738545048  3.5227234440261239  2.5950708597576027
 -0.7353792431886058  3.5227234440261239  4.7932508701083760
 -3.8520042476985461  4.4106962445762452 12.1815725999743556
 10.5907618693445631  4.4106962445762452  9.9833925896235804
 13.0683940642058705  3.4444766965238096  5.0119477154089864
 -0.0963864335399731  3.4444766965238096  2.3763740144569931
 -3.2130114380499144  4.4889429920785604  9.7646957443229709
  9.9517690596959305  4.4889429920785604 12.4002694452749651
 10.7749804618384033  2.7791276587896387  5.6587315218918750
 10.2413434864154169  6.7458375030908231  1.7295902079741023
 -0.9195978356824438  5.1542920298127308  9.1179119378400806
 -0.3859608602594554  1.1875821855115460 13.0470532517578555
  9.1051793377299610  2.1968730110908452  3.9140827814530286
 11.9111446105238610  6.1635828553920300  3.4742389484129501
  0.7502032884259988  5.7365466775115257 10.8625606782789301
 -2.0557619843678978  1.7698368332103396 11.3024045113190059
 15.3258591596457023  4.6984307555560267  0.3947269639397351
 -2.3538515289798005  4.6984307555560267  6.9935947659262441
 -5.4704765334897401  3.2349889330463428 14.3819164957922219
 12.2092341551357624  3.2349889330463428  7.7830486938057133
 12.9938950941009193  5.5009717697837415  0.5149813128422172
 -0.0218874634350172  5.5009717697837415  6.8733404170237611
 -3.1385124679449574  2.4324479188186277 14.2616621468897407
  9.8772700895909793  2.4324479188186277  7.9033030427081954
 12.4981935410091012  7.7806845484259917  1.4291629396924970
  0.4738140896568012  7.7806845484259917  5.9591587901734817
 -2.6428109148531393  0.1527351401763778 13.3474805200394613
  9.3815685364991612  0.1527351401763778  8.8174846695584748
 14.3416201897276974  1.2427592589842709  2.3084664436442752
 -1.3696125590617962  1.2427592589842709  5.0798552862217026
 -4.4862375635717378  6.6906604296180996 12.4681770160876813
 11.2249951852177574  6.6906604296180996  9.6967881735102548
  8.6261916684122397  4.3696383739216715  2.2840054233724580
 12.3901322798415823  0.4029285296204858  5.1043163064935202
  1.2291909577437217  3.5637813146806998 12.4926380363594998
 -2.5347496536856218  7.5304911589818841  9.6723271532384345
  4.0469488591830833  6.7840814364621620  0.8644372272205845
  0.8807424538948974  2.8173715921609785  6.5238845026453935
  5.8084337669728754  1.1493382521402074 13.9122062325113731
  8.9746401722610649  5.1160480964413919  8.2527589570865629
  5.6630705562665877  7.4894332883273105  2.5950708597576027
  7.3089370743993154  7.4894332883273105  4.7932508701083760
  4.1923120698893745  0.4439864002750599 12.1815725999743556
  2.5464455517566487  0.4439864002750599  9.9833925896235804
  5.0240777466179534  7.4111865408249935  5.0119477154089864
  7.9479298840479471  7.4111865408249935  2.3763740144569931
  4.8313048795380071  0.5222331477773760  9.7646957443229709
  1.9074527421080134  0.5222331477773760 12.4002694452749651
  2.7306641442504835  6.7458375030908231  5.6587315218918750
  2.1970271688274963  2.7791276587896387  1.7295902079741023
  7.1247184819054779  1.1875821855115460  9.1179119378400806
  7.6583554573284625  5.1542920298127308 13.0470532517578555
  1.0608630201420415  6.1635828553920300  3.9140827814530286
  3.8668282929359390  2.1968730110908452  3.4742389484129501
  8.7945196060139228  1.7698368332103396 10.8625606782789301
  5.9885543332200220  5.7365466775115257 11.3024045113190059
  7.2815428420577808  0.7317209112548420  0.3947269639397351
  5.6904647886081205  0.7317209112548420  6.9935947659262441
  2.5738397840981810  7.2016987773475281 14.3819164957922219
  4.1649178375478408  7.2016987773475281  7.7830486938057133
  4.9495787765129977  1.5342619254825569  0.5149813128422172
  8.0224288541529027  1.5342619254825569  6.8733404170237611
  4.9058038496429628  6.3991577631198124 14.2616621468897407
  1.8329537720030582  6.3991577631198124  7.9033030427081954
  4.4538772234211814  3.8139747041248069  1.4291629396924970
  8.5181304072447208  3.8139747041248069  5.9591587901734817
  5.4015054027347817  4.1194449844775622 13.3474805200394613
  1.3372522189112417  4.1194449844775622  8.8174846695584748
  6.2973038721397785  5.2094691032854561  2.3084664436442752
  6.6747037585261246  5.2094691032854561  5.0798552862217026
  3.5580787540161842  2.7239505853169139 12.4681770160876813
  3.1806788676298381  2.7239505853169139  9.6967881735102548
  0.5818753508243195  0.4029285296204858  2.2840054233724580
  4.3458159622536616  4.3696383739216715  5.1043163064935202
  9.2735072753316423  7.5304911589818841 12.4926380363594998
  5.5095666639022989  3.5637813146806998  9.6723271532384345
 11.7933440472138642  2.8258390347745759  1.9122435651019427
  9.2229799010399560  6.7925488790757607  5.4760781647640346
 -1.9379614210579048  5.1075806538277932 12.8643998946300151
  0.6324027251160061  1.1408708095266087  9.3005652949679209
 12.7093386172708200  3.2032684191219336  2.8922277287280864
  0.2626690133950830  3.2032684191219336  4.4960940011378918
 -2.8539559911148569  4.7301512694804364 11.8844157310038714
  9.5927136127608783  4.7301512694804364 10.2805494585940647
 12.3474340924729002  3.1746447867703114  4.2407616642124282
  8.6688898557809200  7.1413546310714962  3.1475600656535505
 -2.4920514663169424  4.7587749018320578 10.5358817955195292
  1.1864927703750414  0.7920650575308732 11.6290833940784069
 11.0529721486776360  2.8032779364276594  4.6072540215514683
  9.9633517995761860  6.7699877807288456  2.7810677083145099
 -1.1975895225216742  5.1301417521747101 10.1693894381804881
 -0.1079691734202250  1.1634319078735256 11.9955757514174479
 10.1179969147440847  2.4782252977050820  3.6293110757555054
 10.8983270335097373  6.4449351420062673  3.7590106541104733
 -0.2626142885881230  5.4551943908972866 11.1473323839764493
 -1.0429444073537750  1.4884845465961025 11.0176328056214849
 10.4874293448105842  2.4711541749180106  2.2759379862963236
 10.5288946034432342  6.4378640192191972  5.1123837435696551
 -0.6320467186546247  5.4622655136843585 12.5007054734356338
 -0.6735119772872750  1.4955556693831737  9.6642597161623023
  9.5180134870040813  2.0156374992387800  1.2368469463302303
 11.4983104612497389  5.9823473435399643  6.1514747835357486
  0.3373691391518810  5.9177821893635896 13.5397965134017273
 -1.6429278350937802  1.9510723450624050  8.6251686761962088
  0.0683945320223920  6.4613579603402238  1.3353774609590763
 12.9036130986435076  6.4613579603402238  6.0529442689069013
  9.7869880941335694  1.4720617282621458 13.4412659987728809
 -3.0482304724875466  1.4720617282621458  8.7236991908250552
 15.1128482947400702  5.6782546776974741  0.8203997375016331
 -2.1408406640741684  5.6782546776974741  6.5679219923643455
 -5.2574656685841088  2.2551650109048955 13.9562437222303242
 11.9962232902301302  2.2551650109048955  8.2087214673676119
 13.8008495546943006  6.1381675337651185  0.8767415845332386
 -0.8288419240283978  6.1381675337651185  6.5115801453327400
 -3.9454669285383392  1.7952521548372511 13.8999018751987187
 10.6842245501843607  1.7952521548372511  8.2650633143992174
 13.5211841925548537  7.4028324819375140  1.4046236763537527
 -0.5491765618889527  7.4028324819375140  5.9836980535122262
 -3.6658015663988928  0.5305872066648569 13.3720197833782048
 10.4045591880449138  0.5305872066648569  8.7929454062197312
 14.5575426442092599  0.2560048116472431  1.9064321338048087
 -1.5855350135433581  0.2560048116472431  5.4818895960611700
 -4.7021600180532976  7.6774148769551260 12.8702113259271478
 11.4409176396993200  7.6774148769551260  9.2947538636707883
 -0.2224491160050616  7.7164861132440690  1.8910372799822264
 13.1944567466709639  7.7164861132440690  5.4972844498837530
 10.0778317421610240  0.2169335753583005 12.8856061797497308
 -3.3390741205150016  0.2169335753583005  9.2793590098482053
  3.7490277296259462  6.7925488790757607  1.9122435651019427
  1.1786635834520358  2.8258390347745759  5.4760781647640346
  6.1063548965300161  1.1408708095266087 12.8643998946300151
  8.6767190427039242  5.1075806538277932  9.3005652949679209
  4.6650222996828958  7.1699782634231175  2.8922277287280864
  8.3069853309830020  7.1699782634231175  4.4960940011378918
  5.1903603264730647  0.7634414251792516 11.8844157310038714
  1.5483972951729568  0.7634414251792516 10.2805494585940647
  4.3031177748849814  7.1413546310714962  4.2407616642124282
  0.6245735381929975  3.1746447867703114  3.1475600656535505
  5.5522648512709800  0.7920650575308732 10.5358817955195292
  9.2308090879629603  4.7587749018320578 11.6290833940784069
  3.0086558310897149  6.7699877807288456  4.6072540215514683
  1.9190354819882658  2.8032779364276594  2.7810677083145099
  6.8467267950662460  1.1634319078735256 10.1693894381804881
  7.9363471441676960  5.1301417521747101 11.9955757514174479
  2.0736805971561649  6.4449351420062673  3.6293110757555054
  2.8540107159218162  2.4782252977050820  3.7590106541104733
  7.7817020289997973  1.4884845465961025 11.1473323839764493
  7.0013719102341447  5.4551943908972866 11.0176328056214849
  2.4431130272226649  6.4378640192191972  2.2759379862963236
  2.4845782858553154  2.4711541749180106  5.1123837435696551
  7.4122695989332970  1.4955556693831737 12.5007054734356338
  7.3708043403006434  5.4622655136843585  9.6642597161623023
  1.4736971694161596  5.9823473435399643  1.2368469463302303
  3.4539941436618204  2.0156374992387800  6.1514747835357486
  8.3816854567397989  1.9510723450624050 13.5397965134017273
  6.4013884824941414  5.9177821893635896  8.6251686761962088
  8.1127108496103109  2.4946481160390390  1.3353774609590763
  4.8592967810555878  2.4946481160390390  6.0529442689069013
  1.7426717765456492  5.4387715725633301 13.4412659987728809
  4.9960858451003709  5.4387715725633301  8.7236991908250552
  7.0685319771521495  1.7115448333962893  0.8203997375016331
  5.9034756535137518  1.7115448333962893  6.5679219923643455
  2.7868506490038119  6.2218748552060799 13.9562437222303242
  3.9519069726422096  6.2218748552060799  8.2087214673676119
  5.7565332371063791  2.1714576894639337  0.8767415845332386
  7.2154743935595222  2.1714576894639337  6.5115801453327400
  4.0988493890495823  5.7619619991384372 13.8999018751987187
  2.6399082325964396  5.7619619991384372  8.2650633143992174
  5.4768678749669331  3.4361226376363279  1.4046236763537527
  7.4951397556989683  3.4361226376363279  5.9836980535122262
  4.3785147511890283  4.4972970509660417 13.3720197833782048
  2.3602428704569935  4.4972970509660417  8.7929454062197312
  6.5132263266213384  4.2227146559484279  1.9064321338048087
  6.4587813040445630  4.2227146559484279  5.4818895960611700
  3.3421562995346230  3.7107050326539417 12.8702113259271478
  3.3966013221113984  3.7107050326539417  9.2947538636707883
  7.8218672015828590  3.7497762689428842  1.8910372799822264
  5.1501404290830415  3.7497762689428842  5.4972844498837530
  2.0335154245731020  4.1836434196594849 12.8856061797497308
  4.7052421970729181  4.1836434196594849  9.2793590098482053
  9.8786416943080049  1.2577532272707912  0.3316392227886080
 11.1376822539458171  5.2244630715719760  7.0566825070773707
 -0.0232590681520449  6.6756664613315779 14.4450042369433493
 -1.2822996277898562  2.7089566170303936  7.7199609526545876
  1.8343253767200842  5.2244630715719760  0.3316392227886080
  3.0933659363578947  1.2577532272707912  7.0566825070773707
  8.0210572494358789  2.7089566170303936 14.4450042369433493
  6.7620166897980658  6.6756664613315779  7.7199609526545876
